p tdp 16 78
1 2
1 3
1 4
1 6
1 7
1 8
1 9
1 11
1 12
1 13
1 15
1 16
2 3
2 4
2 6
2 7
2 8
2 11
2 12
2 14
2 15
2 16
3 4
3 5
3 7
3 8
3 10
3 12
3 14
4 5
4 6
4 8
4 9
4 10
4 14
4 15
4 16
5 8
5 10
5 11
5 13
5 15
5 16
6 7
6 9
6 10
6 12
6 13
6 15
7 8
7 9
7 11
7 12
7 13
8 9
8 10
8 11
8 12
8 15
9 10
9 12
9 13
9 14
9 16
10 12
10 13
10 14
10 15
10 16
11 14
11 15
11 16
12 13
12 16
13 16
14 15
14 16
15 16
